WB2.sol
 
couenne: Optimal

Options
3
1
1
0
16
0
13
13
0.9523359692919229
0.5696526139721066
-0.882040758359142
-4.60854533376493
4.60854533376493
0.9917077098460954
-0.9917077098460954
438.8883487456793
94.44389231105542
4.60854533376493
-0.9917077098460954
-4.60854533376493
0.9917077098460954
objno 0 3
